NAME   JuMPModel
ROWS
 N  OBJ
 E  CON1
 E  CON2
 E  CON3
 E  CON4
 E  CON5
 E  CON6
 L  CON7
 L  CON8
 L  CON9
 L  CON10
 L  CON11
 L  CON12
 L  CON13
 L  CON14
 L  CON15
 L  CON16
COLUMNS
    VAR1  CON1  1
    VAR1  CON9  -1
    VAR1  OBJ  1
    VAR2  CON2  1
    VAR2  CON7  -1
    VAR2  CON13  -1
    VAR2  CON15  -1
    VAR2  OBJ  1
    VAR3  CON3  1
    VAR3  CON10  -1
    VAR3  CON16  -1
    VAR3  OBJ  1
    VAR4  CON4  1
    VAR4  CON11  -1
    VAR4  CON14  -1
    VAR4  OBJ  1
    VAR5  CON5  1
    VAR5  CON8  -1
    VAR5  OBJ  1
    VAR6  CON4  1
    VAR6  CON12  -1
    VAR6  OBJ  1
    VAR7  CON9  1
    VAR7  CON10  1
    VAR7  OBJ  -1
    VAR8  CON13  1
    VAR8  CON14  1
    VAR8  OBJ  -1
    VAR9  CON15  1
    VAR9  CON16  1
    VAR9  OBJ  -1
    VAR10  CON7  1
    VAR10  CON8  1
    VAR10  OBJ  -1
    VAR11  CON11  1
    VAR11  CON12  1
    VAR11  OBJ  -1
RHS
    rhs    CON1    1
    rhs    CON2    1
    rhs    CON3    1
    rhs    CON4    0
    rhs    CON5    0
    rhs    CON6    0
    rhs    CON7    0
    rhs    CON8    0
    rhs    CON9    0
    rhs    CON10    0
    rhs    CON11    0
    rhs    CON12    0
    rhs    CON13    0
    rhs    CON14    0
    rhs    CON15    0
    rhs    CON16    0
BOUNDS
  UP BOUND VAR1 1
  UP BOUND VAR2 1
  UP BOUND VAR3 1
  UP BOUND VAR4 1
  UP BOUND VAR5 1
  UP BOUND VAR6 1
  UP BOUND VAR7 1
  UP BOUND VAR8 1
  UP BOUND VAR9 1
  UP BOUND VAR10 1
  UP BOUND VAR11 1
ENDATA
